RT is False
Default write of storage_offers_DA.csv just to have a file (but constraint should be inactive)
Reading model...
...model read.
creating competitive generators file...
...competitive generators recorded.
Loading data...
.. day-ahead data with real-time VRE data read.
Compiling instance...
...instance created.
Creating Offer Mitigation (model will solve as dispatch if TRUE)...
Solving...

Welcome to IBM(R) ILOG(R) CPLEX(R) Interactive Optimizer 12.9.0.0
  with Simplex, Mixed Integer & Barrier Optimizers
5725-A06 5725-A29 5724-Y48 5724-Y49 5724-Y54 5724-Y55 5655-Y21
Copyright IBM Corp. 1988, 2019.  All Rights Reserved.

Type 'help' for a list of available commands.
Type 'help' followed by a command name for more
information on commands.

CPLEX> Logfile 'cplex.log' closed.
Logfile 'C:\Users\llavin\Desktop\test919\logs\tmp8rxyadxm.cplex.log' open.
CPLEX> New value for parallel optimization mode: -1
CPLEX> New value for mixed integer optimality gap tolerance: 0.01
CPLEX> New value for integrality tolerance: 1e-09
CPLEX> New value for feasibility tolerance: 0.01
CPLEX> New value for deterministic time limit in ticks: 75000
CPLEX> Problem 'C:\Users\llavin\Desktop\test919\logs\tmpm2x0lco3.pyomo.lp' read.
Read time = 0.06 sec. (3.04 ticks)
CPLEX> Problem name         : C:\Users\llavin\Desktop\test919\logs\tmpm2x0lco3.pyomo.lp
Objective sense      : Minimize
Variables            :   26081  [Nneg: 1,  Box: 21616,  Free: 4464]
Objective nonzeros   :    2496
Linear constraints   :   27515  [Less: 14006,  Greater: 4416,  Equal: 9093]
  Nonzeros           :   89219
  RHS nonzeros       :   12271

Variables            : Min LB: -5000.000        Max UB: 1000000.       
Objective nonzeros   : Min   : 15.73158         Max   : 124.0997       
Linear constraints   :
  Nonzeros           : Min   : 0.8500000        Max   : 3000.000       
  RHS nonzeros       : Min   : 0.7833333        Max   : 5000.000       
CPLEX> CPXPARAM_Parallel                                -1
CPXPARAM_Simplex_Tolerances_Feasibility          0.01
CPXPARAM_DetTimeLimit                            75000
CPXPARAM_MIP_Tolerances_MIPGap                   0.01
CPXPARAM_MIP_Tolerances_Integrality              1.0000000000000001e-09
Parallel mode: opportunistic, using up to 32 threads for concurrent optimization.
Tried aggregator 1 time.
LP Presolve eliminated 21377 rows and 15487 columns.
Aggregator did 745 substitutions.
Reduced LP has 5393 rows, 9849 columns, and 31790 nonzeros.
Presolve time = 0.06 sec. (30.20 ticks)
Symmetry aggregator did 5563 additional substitutions.

Iteration log . . .
Iteration:     1   Dual objective     =             0.000000
Perturbation started.
Iteration:   101   Dual objective     =             0.000000
Iteration:   338   Dual objective     =             1.262346
Iteration:   613   Dual objective     =             1.963822
Iteration:   868   Dual objective     =             2.112956
Iteration:  1061   Dual objective     =             2.228404
Iteration:  1330   Dual objective     =             2.279130
Iteration:  1580   Dual objective     =             2.309491
Iteration:  1798   Dual objective     =         18505.040292
Iteration:  2009   Dual objective     =        265154.186471
Iteration:  2201   Dual objective     =        362979.900769
Iteration:  2401   Dual objective     =        371796.157790
Iteration:  2693   Dual objective     =        375733.976180
Iteration:  3111   Dual objective     =        376083.493165
Removing perturbation.

Dual crossover.
  Dual:  Fixing 7 variables.
        6 DMoves:  Infeasibility  1.74082970e-13  Objective  3.76081084e+05
        0 DMoves:  Infeasibility  4.26325641e-14  Objective  3.76081084e+05
  Dual:  Pushed 3, exchanged 4.
  Primal:  Fixing 5 variables.
Using devex.

Primal simplex solved model.


Primal simplex - Optimal:  Objective =  3.7608108431e+05
Solution time =    0.17 sec.  Iterations = 1696 (1031)
Deterministic time = 84.34 ticks  (490.33 ticks/sec)

CPLEX> Solution written to file 'C:\Users\llavin\Desktop\test919\logs\tmphzu9qto0.cplex.sol'.
CPLEX> Exporting results... 
...storage offer mitigation file created
Converting model to MPEC...
...converted
NOTE: initial MIP solve with only storage competitive to get feasible solution
Solving...

Welcome to IBM(R) ILOG(R) CPLEX(R) Interactive Optimizer 12.9.0.0
  with Simplex, Mixed Integer & Barrier Optimizers
5725-A06 5725-A29 5724-Y48 5724-Y49 5724-Y54 5724-Y55 5655-Y21
Copyright IBM Corp. 1988, 2019.  All Rights Reserved.

Type 'help' for a list of available commands.
Type 'help' followed by a command name for more
information on commands.

CPLEX> Logfile 'cplex.log' closed.
Logfile 'C:\Users\llavin\Desktop\test919\logs\tmp_orv20rx.cplex.log' open.
CPLEX> New value for parallel optimization mode: -1
CPLEX> New value for mixed integer optimality gap tolerance: 0.01
CPLEX> New value for integrality tolerance: 1e-09
CPLEX> New value for feasibility tolerance: 0.01
CPLEX> New value for deterministic time limit in ticks: 75000
CPLEX> Problem 'C:\Users\llavin\Desktop\test919\logs\tmpmjtz1wuh.pyomo.lp' read.
Read time = 0.23 sec. (14.78 ticks)
CPLEX> Problem name         : C:\Users\llavin\Desktop\test919\logs\tmpmjtz1wuh.pyomo.lp
Objective sense      : Maximize
Variables            :   53805  [Nneg: 1,  Box: 22000,  Free: 4464,
                                 Binary: 27340]
Objective nonzeros   :    9029
Linear constraints   :  123205  [Less: 41346,  Greater: 59096,  Equal: 22763]
  Nonzeros           :  291753
  RHS nonzeros       :   67489

Variables            : Min LB: -5000.000        Max UB: 1000000.       
Objective nonzeros   : Min   : 0.7833333        Max   : 2500.000       
Linear constraints   :
  Nonzeros           : Min   : 0.7833333        Max   : 1000000.       
  RHS nonzeros       : Min   : 0.7833333        Max   : 1000000.       
CPLEX> CPXPARAM_Parallel                                -1
CPXPARAM_Simplex_Tolerances_Feasibility          0.01
CPXPARAM_DetTimeLimit                            75000
CPXPARAM_MIP_Tolerances_MIPGap                   0.01
CPXPARAM_MIP_Tolerances_Integrality              1.0000000000000001e-09
Tried aggregator 3 times.
MIP Presolve eliminated 88722 rows and 19046 columns.
MIP Presolve added 3348 rows and 0 columns.
MIP Presolve modified 24845 coefficients.
Aggregator did 12946 substitutions.
Reduced MIP has 24885 rows, 21257 columns, and 70971 nonzeros.
Reduced MIP has 8392 binaries, 0 generals, 0 SOSs, and 0 indicators.
Presolve time = 0.28 sec. (173.44 ticks)
Probing fixed 386 vars, tightened 2835 bounds.
Probing time = 1.20 sec. (875.17 ticks)
Tried aggregator 2 times.
MIP Presolve eliminated 869 rows and 774 columns.
MIP Presolve modified 2213 coefficients.
Aggregator did 43 substitutions.
Reduced MIP has 23973 rows, 20440 columns, and 68320 nonzeros.
Reduced MIP has 8006 binaries, 0 generals, 0 SOSs, and 0 indicators.
Presolve time = 0.11 sec. (67.95 ticks)
Probing time = 0.03 sec. (16.24 ticks)
Clique table members: 6283.
MIP emphasis: balance optimality and feasibility.
MIP search method: dynamic search.
Parallel mode: opportunistic, using up to 32 threads.
Root relaxation solution time = 0.45 sec. (592.39 ticks)

        Nodes                                         Cuts/
   Node  Left     Objective  IInf  Best Integer    Best Bound    ItCnt     Gap

      0     0     1173.5184   908                   1173.5184     3991         
      0     0     1173.5184     7                     Cuts: 3     3993         
      0     0     1173.5184     7                     Cuts: 3     3994         
      0     0     1173.5184     7                 Impl Bds: 1     3994         
      0    15    infeasible                          Cuts: 25     5391         
Elapsed time = 9.89 sec. (5606.96 ticks, tree = 0.02 MB, solutions = 0)
*   110    48      integral     0   -21410.6916     1173.5184     7173  105.48%
*   154    60      integral     0   -14362.9153     1173.5184     7762  108.17%
    578    47        cutoff         -11575.2947     1173.5184     9929  110.14%
   1046   309    -2259.1056     5   -11575.2947     1173.5184    13349  110.14%
   1796   667     1124.9921     2   -11575.2947     1173.5184    15158  110.14%
   2435  1294      819.7602     3   -11575.2947     1173.5184    17847  110.14%
   2914  1557     1169.8686     5   -11575.2947     1173.5184    19301  110.14%
   3332  1353      590.8304     5    -1830.0897     1173.5184    44606  164.12%
   3659  2109    infeasible          -1830.0897     1173.5184    29501  164.12%
*  3800  1353      integral     0      -31.2804     1173.5184    44483     --- 
*  3858  1268      integral     0       44.3649     1173.5184    45730     --- 
   4725  1373      694.3809   187       44.3649     1173.5184    47056     --- 
Elapsed time = 21.89 sec. (8347.14 ticks, tree = 5.96 MB, solutions = 17)
   5514  1695      694.3809    57       44.3649     1173.5184    48244     --- 
   6208  2039      793.0840    49       44.3649     1173.5184    49339     --- 
   6757  2301     1193.5253   130       44.3649     1173.5184    50167     --- 
   7133  2340        cutoff             44.3649     1173.5184    50589     --- 
   7450  2602      604.6415     1       44.3649     1173.5184    52423     --- 
   7746  2572     1173.0280     2       44.3649     1173.5184    51875     --- 
   8013  1466        cutoff            974.5947     1173.5184    52700   20.41%
   8272  2622      864.4072     1      974.5947     1173.5184    52628   20.41%
   8439  1466        cutoff            974.5947     1173.5184    52641   20.41%
   8571  1472     1041.5126     1      974.5947     1173.5184    52674   20.41%
Elapsed time = 37.17 sec. (17933.05 ticks, tree = 6.09 MB, solutions = 18)
   8577  1554    infeasible            974.5947     1173.5184    58645   20.41%
  10131  1148     1106.0737     5      974.5947     1173.5184    64991   20.41%
  12599  1362     1083.3370     4      974.5947     1173.5184    66334   20.41%
  15479  3650     1172.7287     1      974.5947     1173.5184    77887   20.41%
  17424  4509        cutoff            974.5947     1173.5184    82399   20.41%
  18437  5381     1172.7287     1      974.5947     1173.5184    86917   20.41%
  20341  5559        cutoff            974.5947     1173.5184    88149   20.41%
  21926  6221     1172.7287     2      974.5947     1173.5184    92070   20.41%
  23169  6648        cutoff            974.5947     1173.3143    94646   20.39%
  24320  7085        cutoff            974.5947     1173.3143    97190   20.39%
Elapsed time = 67.52 sec. (28492.50 ticks, tree = 30.37 MB, solutions = 18)
  25381  7321     1034.9506     2      974.5947     1173.3143    98694   20.39%
  26252  7301        cutoff            974.5947     1173.3143    98642   20.39%
  27027  7389        cutoff           1076.8036     1173.3143    99524    8.96%
  27458  6525        cutoff           1076.8036     1173.3143   102816    8.96%
  28161  6705        cutoff           1076.8036     1172.7287   104176    8.91%
  29075  6666     1172.7287     1     1076.8036     1172.7287   103830    8.91%
  29862  6625        cutoff           1076.8036     1172.7287   103564    8.91%
  30773  6676        cutoff           1076.8036     1172.7287   103923    8.91%
  31776  7152     1083.6407     7     1076.8036     1172.7287   107351    8.91%
  32628  7670        cutoff           1076.8036     1172.7287   111001    8.91%
Elapsed time = 89.16 sec. (38038.60 ticks, tree = 33.04 MB, solutions = 19)
  33464  7068     1172.7287     1     1076.8036     1172.7287   106616    8.91%
  34223  7102     1116.4922     4     1076.8036     1172.7287   107021    8.91%
  34906  7552        cutoff           1076.8036     1172.7287   110101    8.91%
  35576  7995     1153.5423     3     1076.8036     1172.7287   113379    8.91%
  36327  8430     1172.7287     1     1076.8036     1172.7287   117157    8.91%
  37151  8198     1083.3370     3     1076.8036     1172.7287   115052    8.91%
  37993  8246     1101.0030     2     1076.8036     1172.7287   115556    8.91%
  38943  9066     1083.3370     4     1076.8036     1172.7287   121752    8.91%
  39827  9210     1157.3705     2     1076.8036     1172.7287   122921    8.91%
  40778  9003     1101.0030     2     1076.8036     1172.7287   121248    8.91%
Elapsed time = 109.80 sec. (47588.39 ticks, tree = 40.15 MB, solutions = 19)
  41720  9430        cutoff           1076.8036     1172.7287   124383    8.91%
  42716  9207     1105.9812     2     1076.8036     1172.7287   122854    8.91%
  43726  9929     1163.2514     4     1076.8036     1172.7287   128206    8.91%
  44721 10216     1172.7287     2     1076.8036     1172.7287   130322    8.91%
  45625 10575     1172.7287     2     1076.8036     1172.7287   133047    8.91%
  46575 11459     1101.0030     3     1076.8036     1172.7287   139791    8.91%
  47361 11816        cutoff           1083.3370     1172.7287   142871    8.25%
  48080 12601     1144.3666     4     1083.3370     1172.7287   148915    8.25%
  48937 12239     1172.7287     4     1083.3370     1172.7287   146154    8.25%
  49783 12495     1172.7287     5     1083.3370     1172.7287   148089    8.25%
Elapsed time = 129.92 sec. (57129.95 ticks, tree = 59.76 MB, solutions = 20)
  50535 13155     1116.4922     3     1083.3370     1172.7287   153398    8.25%
  51265 14138     1172.7287     4     1083.3370     1172.7287   166227    8.25%
  52044 13029        cutoff           1083.3370     1172.7287   157309    8.25%
  52863 13881     1083.6407     3     1083.3370     1172.7287   164045    8.25%
  53817 14062     1099.0487     4     1083.3370     1172.7287   165527    8.25%
  54598 14453     1172.7287     4     1083.3370     1172.7287   169226    8.25%
  55415 14202     1101.0030     3     1083.3370     1172.7287   166789    8.25%
  56169 15984        cutoff           1083.3370     1172.7287   183529    8.25%
  57140 15587     1083.6407     3     1083.3370     1172.7287   179549    8.25%
  57902 15372     1172.7287     2     1083.3370     1172.7287   177364    8.25%
Elapsed time = 150.11 sec. (66673.39 ticks, tree = 75.89 MB, solutions = 20)
  58595 15409     1172.7287     5     1083.3370     1172.7287   177920    8.25%
  59548 16534     1101.0030     4     1083.3370     1172.7287   190011    8.25%
  60337 16797     1172.7287     4     1083.3370     1172.7287   192936    8.25%
  60939 16415        cutoff           1083.3370     1172.7287   188443    8.25%
  61622 16835     1083.6407     3     1083.3370     1172.7287   193271    8.25%
  62155 17527     1101.0030     4     1083.3370     1172.7287   200941    8.25%
  62653 17500     1172.7287     2     1083.3370     1172.7287   200639    8.25%
  62935 17158     1105.9812     4     1083.3370     1172.7287   196838    8.25%

Cover cuts applied:  2
Implied bound cuts applied:  6
Flow cuts applied:  2
Mixed integer rounding cuts applied:  2
Gomory fractional cuts applied:  5

Root node processing (before b&c):
  Real time             =    8.02 sec. (5589.17 ticks)
Parallel b&c, 32 threads:
  Real time             =  147.41 sec. (69552.30 ticks)
  Sync time (average)   =    1.99 sec.
  Wait time (average)   =    0.12 sec.
                          ------------
Total (root+branch&cut) =  155.42 sec. (75141.47 ticks)

Solution pool: 20 solutions saved.

MIP - Deterministic time limit exceeded, integer feasible:  Objective =  1.0833370288e+03
Current MIP best bound =  1.1727286510e+03 (gap = 89.3916, 8.25%)
Solution time =  155.45 sec.  Iterations = 219879  Nodes = 63129 (19610)
Deterministic time = 75141.63 ticks  (483.37 ticks/sec)

CPLEX> Incumbent solution written to file 'C:\Users\llavin\Desktop\test919\logs\tmp8b4pcgxj.cplex.sol'.
CPLEX> NOTE: no warmstart specified for MIP iteration, default behavior is true
NOTE: resolving with all competitive generators using storage-only solution to warmstart
Solving...

Welcome to IBM(R) ILOG(R) CPLEX(R) Interactive Optimizer 12.9.0.0
  with Simplex, Mixed Integer & Barrier Optimizers
5725-A06 5725-A29 5724-Y48 5724-Y49 5724-Y54 5724-Y55 5655-Y21
Copyright IBM Corp. 1988, 2019.  All Rights Reserved.

Type 'help' for a list of available commands.
Type 'help' followed by a command name for more
information on commands.

CPLEX> Logfile 'cplex.log' closed.
Logfile 'C:\Users\llavin\Desktop\test919\logs\tmpkkwov01d.cplex.log' open.
CPLEX> New value for parallel optimization mode: -1
CPLEX> New value for mixed integer optimality gap tolerance: 0.01
CPLEX> New value for integrality tolerance: 1e-09
CPLEX> New value for feasibility tolerance: 0.01
CPLEX> New value for deterministic time limit in ticks: 75000
CPLEX> Problem 'C:\Users\llavin\Desktop\test919\logs\tmpv4qbujhj.pyomo.lp' read.
Read time = 0.23 sec. (14.81 ticks)
CPLEX> MIP start file 'C:\Users\llavin\Desktop\test919\logs\tmp68p_ryhp.cplex.mst' read.
CPLEX> Problem name         : C:\Users\llavin\Desktop\test919\logs\tmpv4qbujhj.pyomo.lp
Objective sense      : Maximize
Variables            :   54525  [Nneg: 1,  Box: 22720,  Free: 4464,
                                 Binary: 27340]
Objective nonzeros   :    9725
Linear constraints   :  123205  [Less: 41346,  Greater: 59096,  Equal: 22763]
  Nonzeros           :  291753
  RHS nonzeros       :   67489

Variables            : Min LB: -5000.000        Max UB: 1000000.       
Objective nonzeros   : Min   : 0.7833333        Max   : 2500.000       
Linear constraints   :
  Nonzeros           : Min   : 0.7833333        Max   : 1000000.       
  RHS nonzeros       : Min   : 0.7833333        Max   : 1000000.       
CPLEX> CPXPARAM_Parallel                                -1
CPXPARAM_Simplex_Tolerances_Feasibility          0.01
CPXPARAM_DetTimeLimit                            75000
CPXPARAM_MIP_Tolerances_MIPGap                   0.01
CPXPARAM_MIP_Tolerances_Integrality              1.0000000000000001e-09
Warning:  No solution found from 1 MIP starts.
Retaining values of one MIP start for possible repair.
Tried aggregator 3 times.
MIP Presolve eliminated 88722 rows and 19766 columns.
MIP Presolve added 3348 rows and 0 columns.
MIP Presolve modified 24845 coefficients.
Aggregator did 12946 substitutions.
Reduced MIP has 24885 rows, 21257 columns, and 70971 nonzeros.
Reduced MIP has 8392 binaries, 0 generals, 0 SOSs, and 0 indicators.
Presolve time = 0.28 sec. (173.80 ticks)
Probing fixed 386 vars, tightened 2835 bounds.
Probing time = 1.20 sec. (875.17 ticks)
Tried aggregator 2 times.
MIP Presolve eliminated 869 rows and 774 columns.
MIP Presolve modified 2213 coefficients.
Aggregator did 43 substitutions.
Reduced MIP has 23973 rows, 20440 columns, and 68320 nonzeros.
Reduced MIP has 8006 binaries, 0 generals, 0 SOSs, and 0 indicators.
Presolve time = 0.09 sec. (67.97 ticks)
Probing time = 0.03 sec. (16.24 ticks)
Clique table members: 6283.
MIP emphasis: balance optimality and feasibility.
MIP search method: dynamic search.
Parallel mode: opportunistic, using up to 32 threads.
Root relaxation solution time = 0.45 sec. (632.42 ticks)

        Nodes                                         Cuts/
   Node  Left     Objective  IInf  Best Integer    Best Bound    ItCnt     Gap

      0     0    90656.5748   862                  90656.5748     4001         
      0     0    90058.4157    80                   Cuts: 136     4078         
      0     0    89852.0790    72                    Cuts: 89     4129         
      0     0    89820.1120    76                Flowcuts: 42     4147         
      0     0    89779.6865    72                    Cuts: 32     4160         
      0     0    89779.6865    72                Flowcuts: 22     4163         
      0     0    89779.6865    71                Flowcuts: 16     4164         
Repair heuristic found nothing.
      0     2    89779.6865    71                    Cuts: 14     4164         
Elapsed time = 9.95 sec. (6179.49 ticks, tree = 0.02 MB, solutions = 0)
    592   214    84543.2312    32                  87710.7994     6460         
   1097   691    79388.4362    30                  87710.7994    10878         
   1767  1303    84655.9508    27                  87710.7994    18675         
*  2248  1797      integral     0    85460.2008    87710.7994    25377    2.63%
   2366  1785    86219.6931    31    85460.2008    87710.7994    24989    2.63%
   2894   377    86475.9359    21    85460.2008    87575.9140    31884    2.48%
   3696   550    86664.3393    17    85460.2008    87575.9140    35021    2.48%
   4488   930        cutoff          85460.2008    87575.9140    37434    2.48%
   5048  1737    86695.8712    19    85460.2008    87571.6988    41004    2.47%
   5568  2166        cutoff          85460.2008    87571.6988    43026    2.47%
   5664  2537    infeasible          85460.2008    87547.6305    56745    2.44%
Elapsed time = 29.61 sec. (12993.79 ticks, tree = 26.59 MB, solutions = 1)
   6873    81    86299.2591   141    85460.2008    87152.0485    57709    1.98%
   8375   974    85754.1720    69    85460.2008    87152.0485    63119    1.98%
   8846  2143    86481.5749    57    85460.2008    87152.0485    72730    1.98%
* 10449  2187      integral     0    86048.2820    86946.8083    73433    1.04%
* 10525  2043      integral     0    86211.9405    86946.8083    72324    0.85%
* 11155  2166      integral     0    86367.6396    86946.8083    72919    0.67%
  11855  2288    86745.2534    51    86367.6396    86946.8083    73921    0.67%

GUB cover cuts applied:  2
Clique cuts applied:  34
Cover cuts applied:  19
Implied bound cuts applied:  46
Flow cuts applied:  339
Mixed integer rounding cuts applied:  21
Gomory fractional cuts applied:  69

Root node processing (before b&c):
  Real time             =    8.33 sec. (6129.72 ticks)
Parallel b&c, 32 threads:
  Real time             =   38.86 sec. (12020.53 ticks)
  Sync time (average)   =    2.96 sec.
  Wait time (average)   =    0.25 sec.
                          ------------
Total (root+branch&cut) =   47.19 sec. (18150.26 ticks)

Solution pool: 6 solutions saved.

MIP - Integer optimal, tolerance (0.01/1e-06):  Objective =  8.6367639569e+04
Current MIP best bound =  8.6845668057e+04 (gap = 478.028, 0.55%)
Solution time =   47.20 sec.  Iterations = 87516  Nodes = 12009 (2137)
Deterministic time = 18150.41 ticks  (384.52 ticks/sec)

CPLEX> Incumbent solution written to file 'C:\Users\llavin\Desktop\test919\logs\tmp9nwfs9cg.cplex.sol'.
CPLEX> Exporting results... 
